language ESSENCE' 1.0
letting AssignmentMatrix be [[1, 0, 1, 0, 1, 0, 0, 0], 
[0, 1, 0, 1, 0, 0, 0, 0], 
[0, 0, 0, 0, 0, 0, 0, 0], 
[0, 0, 0, 0, 0, 0, 1, 0], 
[0, 0, 0, 0, 0, 1, 0, 1]]
letting OccupancyVector be [1, 1, 1, 1, 1, 1, 1, 1]
letting Price be [126, 126, 126, 126, 126, 210, 210, 210]
letting VMType be [225, 225, 225, 225, 225, 182, 182, 182]
